0000000000000000
0000000000000000
0000000000000000
0000000000000000
0000110000010000
0000110000010000
0000011100110000
0000001110100000
0000001011100000
0000011000110000
0000010000011000
0000010000001000
0000010000001100
0000000000000000
0000000000000000
0000000000000000
